unknown
(model
; cardinality of BoundSet is 3
(declare-sort BoundSet 0)
; rep: @uc_BoundSet_0
; rep: @uc_BoundSet_1
; rep: @uc_BoundSet_2
; cardinality of UnboundSet is 1
(declare-sort UnboundSet 0)
(declare-fun groundTerm_4 () UnboundSet)
(define-fun ShowCorrelation ((BOUND_VARIABLE_371 BoundSet) (BOUND_VARIABLE_372 BoundSet) (BOUND_VARIABLE_373 BoundSet)) Bool false)
(define-fun Cause ((BOUND_VARIABLE_382 BoundSet) (BOUND_VARIABLE_383 BoundSet)) Bool false)
)
sat
(model
; cardinality of BoundSet is 1
(declare-sort BoundSet 0)
; rep: @uc_BoundSet_0
; cardinality of UnboundSet is 1
(declare-sort UnboundSet 0)
(declare-fun groundTerm_6 () UnboundSet)
(define-fun ShowCorrelation ((BOUND_VARIABLE_391 BoundSet) (BOUND_VARIABLE_392 BoundSet) (BOUND_VARIABLE_393 BoundSet)) Bool false)
(define-fun Cause ((BOUND_VARIABLE_400 BoundSet) (BOUND_VARIABLE_401 BoundSet)) Bool true)
)
